g3 0 1 0	# problem arglinc
 8 0 1 0 0	# vars, constraints, objectives, ranges, eqns
 0 1	# nonlinear constraints, objectives
 0 0	# network constraints: nonlinear, linear
 0 8 0	# nonlinear vars in constraints, objectives, both
 0 0 0 1	# linear network variables; functions; arith, flags
 0 0 0 0 0	# discrete variables: binary, integer, nonlinear (b,c,o)
 0 8	# nonzeros in Jacobian, gradients
 1 4	# max name lengths: constraints, variables
 0 0 0 0 0	# common exprs: b,c,o,c1,o1
O0 0
o54
19
o5
o1
o54
8
o2
n2
v0
o2
n3
v1
o2
n4
v2
o2
n5
v3
o2
n6
v4
o2
n7
v5
o2
n8
v6
o2
n9
v7
n1
n2
o5
o1
o54
8
o2
n2
o2
n2
v0
o2
n2
o2
n3
v1
o2
n2
o2
n4
v2
o2
n2
o2
n5
v3
o2
n2
o2
n6
v4
o2
n2
o2
n7
v5
o2
n2
o2
n8
v6
o2
n2
o2
n9
v7
n1
n2
o5
o1
o54
8
o2
n3
o2
n2
v0
o2
n3
o2
n3
v1
o2
n3
o2
n4
v2
o2
n3
o2
n5
v3
o2
n3
o2
n6
v4
o2
n3
o2
n7
v5
o2
n3
o2
n8
v6
o2
n3
o2
n9
v7
n1
n2
o5
o1
o54
8
o2
n4
o2
n2
v0
o2
n4
o2
n3
v1
o2
n4
o2
n4
v2
o2
n4
o2
n5
v3
o2
n4
o2
n6
v4
o2
n4
o2
n7
v5
o2
n4
o2
n8
v6
o2
n4
o2
n9
v7
n1
n2
o5
o1
o54
8
o2
n5
o2
n2
v0
o2
n5
o2
n3
v1
o2
n5
o2
n4
v2
o2
n5
o2
n5
v3
o2
n5
o2
n6
v4
o2
n5
o2
n7
v5
o2
n5
o2
n8
v6
o2
n5
o2
n9
v7
n1
n2
o5
o1
o54
8
o2
n6
o2
n2
v0
o2
n6
o2
n3
v1
o2
n6
o2
n4
v2
o2
n6
o2
n5
v3
o2
n6
o2
n6
v4
o2
n6
o2
n7
v5
o2
n6
o2
n8
v6
o2
n6
o2
n9
v7
n1
n2
o5
o1
o54
8
o2
n7
o2
n2
v0
o2
n7
o2
n3
v1
o2
n7
o2
n4
v2
o2
n7
o2
n5
v3
o2
n7
o2
n6
v4
o2
n7
o2
n7
v5
o2
n7
o2
n8
v6
o2
n7
o2
n9
v7
n1
n2
o5
o1
o54
8
o2
n8
o2
n2
v0
o2
n8
o2
n3
v1
o2
n8
o2
n4
v2
o2
n8
o2
n5
v3
o2
n8
o2
n6
v4
o2
n8
o2
n7
v5
o2
n8
o2
n8
v6
o2
n8
o2
n9
v7
n1
n2
o5
o1
o54
8
o2
n9
o2
n2
v0
o2
n9
o2
n3
v1
o2
n9
o2
n4
v2
o2
n9
o2
n5
v3
o2
n9
o2
n6
v4
o2
n9
o2
n7
v5
o2
n9
o2
n8
v6
o2
n9
o2
n9
v7
n1
n2
o5
o1
o54
8
o2
n10
o2
n2
v0
o2
n10
o2
n3
v1
o2
n10
o2
n4
v2
o2
n10
o2
n5
v3
o2
n10
o2
n6
v4
o2
n10
o2
n7
v5
o2
n10
o2
n8
v6
o2
n10
o2
n9
v7
n1
n2
o5
o1
o54
8
o2
n11
o2
n2
v0
o2
n11
o2
n3
v1
o2
n11
o2
n4
v2
o2
n11
o2
n5
v3
o2
n11
o2
n6
v4
o2
n11
o2
n7
v5
o2
n11
o2
n8
v6
o2
n11
o2
n9
v7
n1
n2
o5
o1
o54
8
o2
n12
o2
n2
v0
o2
n12
o2
n3
v1
o2
n12
o2
n4
v2
o2
n12
o2
n5
v3
o2
n12
o2
n6
v4
o2
n12
o2
n7
v5
o2
n12
o2
n8
v6
o2
n12
o2
n9
v7
n1
n2
o5
o1
o54
8
o2
n13
o2
n2
v0
o2
n13
o2
n3
v1
o2
n13
o2
n4
v2
o2
n13
o2
n5
v3
o2
n13
o2
n6
v4
o2
n13
o2
n7
v5
o2
n13
o2
n8
v6
o2
n13
o2
n9
v7
n1
n2
o5
o1
o54
8
o2
n14
o2
n2
v0
o2
n14
o2
n3
v1
o2
n14
o2
n4
v2
o2
n14
o2
n5
v3
o2
n14
o2
n6
v4
o2
n14
o2
n7
v5
o2
n14
o2
n8
v6
o2
n14
o2
n9
v7
n1
n2
o5
o1
o54
8
o2
n15
o2
n2
v0
o2
n15
o2
n3
v1
o2
n15
o2
n4
v2
o2
n15
o2
n5
v3
o2
n15
o2
n6
v4
o2
n15
o2
n7
v5
o2
n15
o2
n8
v6
o2
n15
o2
n9
v7
n1
n2
o5
o1
o54
8
o2
n16
o2
n2
v0
o2
n16
o2
n3
v1
o2
n16
o2
n4
v2
o2
n16
o2
n5
v3
o2
n16
o2
n6
v4
o2
n16
o2
n7
v5
o2
n16
o2
n8
v6
o2
n16
o2
n9
v7
n1
n2
o5
o1
o54
8
o2
n17
o2
n2
v0
o2
n17
o2
n3
v1
o2
n17
o2
n4
v2
o2
n17
o2
n5
v3
o2
n17
o2
n6
v4
o2
n17
o2
n7
v5
o2
n17
o2
n8
v6
o2
n17
o2
n9
v7
n1
n2
o5
o1
o54
8
o2
n18
o2
n2
v0
o2
n18
o2
n3
v1
o2
n18
o2
n4
v2
o2
n18
o2
n5
v3
o2
n18
o2
n6
v4
o2
n18
o2
n7
v5
o2
n18
o2
n8
v6
o2
n18
o2
n9
v7
n1
n2
n2
x8
0 1
1 1
2 1
3 1
4 1
5 1
6 1
7 1
b
3
3
3
3
3
3
3
3
k7
0
0
0
0
0
0
0
G0 8
0 0
1 0
2 0
3 0
4 0
5 0
6 0
7 0
